(set-logic QF_S)
(declare-fun var_0xINPUT_257285 () String)
(assert (and (= (len var_0xINPUT_257285) 0) (= (len var_0xINPUT_257285) 0) (not (= var_0xINPUT_257285 "Example:")) (= (len var_0xINPUT_257285) 0) (not (= var_0xINPUT_257285 "3s71lxYG6e"))))
(check-sat var_0xINPUT_257285)